         Color_Count              Greedy              Dsatur                 SDL        Welsh_Powell                 RLF
                  16                   4                   4                   5                   4                   5
                  32                   7                   6                   7                   6                   7
                  64                   9                   9                  11                   9                  10
                 128                  18                  17                  15                  14                  15
                 256                  27                  27                  28                  25                  26
                 512                  47                  48                  46                  40                  41
                1024                  82                  86                  79                  71                  72
                2048                 139                 155                 134                 126                 127
